benchmarks_vrp/CMT3/min_c/CMT3_1.vrp
NAME: CMT3_1
TYPE: CVRP
COMMENT: 826.14 - Cluster Nr.1
DIMENSION: 11
CAPACITY: 200
EDGE_WEIGHT_TYPE: EUC_2D
NODE_COORD_TYPE: TWOD_COORDS
NODE_COORD_SECTION: 
9 37 56
4 49 58
3 49 73
1 63 65
6 62 77
7 40 60
2 57 68
11 55 60
5 45 65
10 35 35
8 35 69
DEPOT_SECTION: 
10
-1
DEMAND_SECTION: 
8 23
7 21
6 20
11 16
4 10
10 0
5 9
9 5
3 25
1 8
2 15
EOF
