benchmarks_vrp/CMT3/min_c/CMT3_1.tour
NAME: CMT3_1 solution
TYPE: TOUR
TOUR_SECTION:
10 4 11 1 6 2 3 5 8 7 9 -1
-1
EOF